proyfinal/src/viki/013/experimentInOfficeAgust.take6.output/4d68d657-092b-4407-a7a8-f2d0c790a767.als.dat
{'cnf.clauses': '118081',
 'cnf.totvars': '69608',
 'conflict literals': '15',
 'conflicts': '9',
 'decisions': '4220',
 'memused.mb': '16.18',
 'outcome': 'UNSAT',
 'propagations': '23909',
 'restarts': '1',
 'solver.msecs': 33,
 'task.msecs': 79}
