proyfinal/src/viki/013/experimentInOfficeAgust.take6.output/4d68d657-092b-4407-a7a8-f2d0c790a767.als.out
Reading from standard input... Use '--help' for help.
============================[ Problem Statistics ]=============================
|                                                                             |
|  Number of variables:         69608                                         |
|  Number of clauses:          118081                                         |
|  Parse time:                   0.02 s                                       |
|                                                                             |
============================[ Search Statistics ]==============================
| Conflicts |          ORIGINAL         |          LEARNT          | Progress |
|           |    Vars  Clauses Literals |    Limit  Clauses Lit/Cl |          |
===============================================================================
===============================================================================
restarts              : 1
conflicts             : 9              (269 /sec)
decisions             : 4220           (0.00 % random) (126362 /sec)
propagations          : 23909          (715924 /sec)
conflict literals     : 15             (0.00 % deleted)
Memory used           : 16.18 MB
CPU time              : 0.033396 s

UNSATISFIABLE
